NAME          
ROWS
 N  OBJ
 L  c1
COLUMNS
    MARKER    'MARKER'                 'INTORG'
    x[1]      c1        869
    x[1]      OBJ       -367
    x[2]      c1        928
    x[2]      OBJ       -214
    x[3]      c1        908
    x[3]      OBJ       -931
    x[4]      c1        231
    x[4]      OBJ       -711
    x[5]      c1        630
    x[5]      OBJ       -840
    x[6]      c1        660
    x[6]      OBJ       -692
    x[7]      c1        940
    x[7]      OBJ       -235
    x[8]      c1        577
    x[8]      OBJ       -493
    x[9]      c1        890
    x[9]      OBJ       -748
    x[10]     c1        984
    x[10]     OBJ       -537
    x[11]     c1        95
    x[11]     OBJ       -156
    x[12]     c1        123
    x[12]     OBJ       -953
    x[13]     c1        135
    x[13]     OBJ       -117
    x[14]     c1        905
    x[14]     OBJ       -282
    x[15]     c1        527
    x[15]     OBJ       -515
    x[16]     c1        260
    x[16]     OBJ       -140
    x[17]     c1        881
    x[17]     OBJ       -576
    x[18]     c1        157
    x[18]     OBJ       -109
    x[19]     c1        994
    x[19]     OBJ       -104
    x[20]     c1        621
    x[20]     OBJ       -743
    x[21]     c1        910
    x[21]     OBJ       -752
    x[22]     c1        456
    x[22]     OBJ       -357
    x[23]     c1        980
    x[23]     OBJ       -486
    x[24]     c1        641
    x[24]     OBJ       -546
    x[25]     c1        674
    x[25]     OBJ       -977
    x[26]     c1        12
    x[26]     OBJ       -830
    x[27]     c1        349
    x[27]     OBJ       -534
    x[28]     c1        558
    x[28]     OBJ       -78
    x[29]     c1        300
    x[29]     OBJ       -638
    x[30]     c1        457
    x[30]     OBJ       -463
    x[31]     c1        923
    x[31]     OBJ       -957
    x[32]     c1        224
    x[32]     OBJ       -125
    x[33]     c1        143
    x[33]     OBJ       -456
    x[34]     c1        569
    x[34]     OBJ       -650
    x[35]     c1        45
    x[35]     OBJ       -512
    x[36]     c1        632
    x[36]     OBJ       -610
    x[37]     c1        703
    x[37]     OBJ       -199
    x[38]     c1        503
    x[38]     OBJ       -885
    x[39]     c1        453
    x[39]     OBJ       -890
    x[40]     c1        190
    x[40]     OBJ       -533
    x[41]     c1        241
    x[41]     OBJ       -647
    x[42]     c1        810
    x[42]     OBJ       -98
    x[43]     c1        710
    x[43]     OBJ       -934
    x[44]     c1        404
    x[44]     OBJ       -273
    x[45]     c1        761
    x[45]     OBJ       -175
    x[46]     c1        389
    x[46]     OBJ       -935
    x[47]     c1        780
    x[47]     OBJ       -815
    x[48]     c1        300
    x[48]     OBJ       -645
    x[49]     c1        601
    x[49]     OBJ       -838
    x[50]     c1        712
    x[50]     OBJ       -745
RHS
    rhs       c1        13872
RANGES
BOUNDS
 LO bounds    x[1]      0
 PL bounds    x[1]
 LO bounds    x[2]      0
 PL bounds    x[2]
 LO bounds    x[3]      0
 PL bounds    x[3]
 LO bounds    x[4]      0
 PL bounds    x[4]
 LO bounds    x[5]      0
 PL bounds    x[5]
 LO bounds    x[6]      0
 PL bounds    x[6]
 LO bounds    x[7]      0
 PL bounds    x[7]
 LO bounds    x[8]      0
 PL bounds    x[8]
 LO bounds    x[9]      0
 PL bounds    x[9]
 LO bounds    x[10]     0
 PL bounds    x[10]
 LO bounds    x[11]     0
 PL bounds    x[11]
 LO bounds    x[12]     0
 PL bounds    x[12]
 LO bounds    x[13]     0
 PL bounds    x[13]
 LO bounds    x[14]     0
 PL bounds    x[14]
 LO bounds    x[15]     0
 PL bounds    x[15]
 LO bounds    x[16]     0
 PL bounds    x[16]
 LO bounds    x[17]     0
 PL bounds    x[17]
 LO bounds    x[18]     0
 PL bounds    x[18]
 LO bounds    x[19]     0
 PL bounds    x[19]
 LO bounds    x[20]     0
 PL bounds    x[20]
 LO bounds    x[21]     0
 PL bounds    x[21]
 LO bounds    x[22]     0
 PL bounds    x[22]
 LO bounds    x[23]     0
 PL bounds    x[23]
 LO bounds    x[24]     0
 PL bounds    x[24]
 LO bounds    x[25]     0
 PL bounds    x[25]
 LO bounds    x[26]     0
 PL bounds    x[26]
 LO bounds    x[27]     0
 PL bounds    x[27]
 LO bounds    x[28]     0
 PL bounds    x[28]
 LO bounds    x[29]     0
 PL bounds    x[29]
 LO bounds    x[30]     0
 PL bounds    x[30]
 LO bounds    x[31]     0
 PL bounds    x[31]
 LO bounds    x[32]     0
 PL bounds    x[32]
 LO bounds    x[33]     0
 PL bounds    x[33]
 LO bounds    x[34]     0
 PL bounds    x[34]
 LO bounds    x[35]     0
 PL bounds    x[35]
 LO bounds    x[36]     0
 PL bounds    x[36]
 LO bounds    x[37]     0
 PL bounds    x[37]
 LO bounds    x[38]     0
 PL bounds    x[38]
 LO bounds    x[39]     0
 PL bounds    x[39]
 LO bounds    x[40]     0
 PL bounds    x[40]
 LO bounds    x[41]     0
 PL bounds    x[41]
 LO bounds    x[42]     0
 PL bounds    x[42]
 LO bounds    x[43]     0
 PL bounds    x[43]
 LO bounds    x[44]     0
 PL bounds    x[44]
 LO bounds    x[45]     0
 PL bounds    x[45]
 LO bounds    x[46]     0
 PL bounds    x[46]
 LO bounds    x[47]     0
 PL bounds    x[47]
 LO bounds    x[48]     0
 PL bounds    x[48]
 LO bounds    x[49]     0
 PL bounds    x[49]
 LO bounds    x[50]     0
 PL bounds    x[50]
ENDATA
